StudentsNr = 10;
InstructorsNr = 36;
DaysNr = 1;
SlotsPerDay = 40;
AvailabilitySlotsLenght = 40;
RoomNr = 2;
ProgrammNr = 2;
DegreeNr = 1;
RolesNr = 0;
CoursesNr = 0;
InstructorsProgramm = [{1}, {2}, {1, 2}, {1}, {1, 2}, {1, 2}, {1, 2}, {1}, {1, 2}, {2}, {2}, {1}, {2}, {1}, {2}, {2}, {2}, {1}, {1}, {1}, {2}, {1}, {1}, {1}, {1, 2}, {1}, {1, 2}, {2}, {1}, {1, 2}, {2}, {1, 2}, {2}, {2}, {1}, {2}];
InstructorRolesPerProgramm = array2d(1..ProgrammNr,{},[]);
InstructorsAvailability = [|0, |1, |1, |1, |0, |0, |1, |0, |1, |0, |1, |0, |1, |0, |0, |0, |1, |1, |1, |0, |1, |0, |1, |0, |1, |0, |1, |0, |0, |0, |0, |0, |1, |1, |0, |0|];
StudentsProgramm = [1, 1, 2, 1, 2, 1, 1, 1, 1, 1];
StudentsDegree = [1, 1, 1, 1, 1, 1, 1, 1, 1, 1];
StudentsSupervisorId = [22, 1, 28, 23, 17, 14, 26, 27, 5, 25];
StudentsCourseIds = [{}, {}, {}, {}, {}, {}, {}, {}, {}, {}];
StudentsAvailability = [|1, |1, |0, |1, |1, |0, |0, |1, |0, |0|];
TheoryticalMinCard = [1, 1, 1, 1, 1, 1, 1, 1, 1, 1];
CoursesInstructorIds = [];
RolesDemands = [];
RolesContinuity = [];
ExamLen = [1, 1, 1, 1, 1, 1, 1, 1, 1, 1];
LunchTsMinLen = 0;
LunchStarts = [14..25];
SupervisorAvailable = 5;
OptimalLunchLenght = [1, 1];
OptimalStartTs = [0, 0];
OptimalFinishTs = [1, 40];
MinimizeRooms = 300;
RolesSoftContinuity = array2d(1..2,{},[]);
SameDegreeInRoom = 20;
Mergeability = 2;
